\ LP format - for model browsing. Use MPS format to capture full model detail.
Minimize
  - x0 - 2 x1
Subject To
 constr(0): - 5 x0 - 5 x1 >= -6
 constr(1): 3 x0 + 2 x1 >= -0
Bounds
 x0 <= 1
 x1 <= 4
Generals
 x0 x1
End
